34
XYZ file generated by Avogadro.
Ti    -0.8536752957    2.9444650902    0.0887060674
N     -0.8320824941    4.6526547915    1.2620524366
C     -2.0087400384    4.7707622247    2.1183754082
C      0.3990266732    4.6799384830    2.0586210818
N      0.2565213144    3.4170740883   -1.5991979003
C      1.5824248002    3.9413400148   -1.2970653792
C      0.2717322270    2.3073477989   -2.5456631804
N     -0.0097213828    1.5470498292    1.3540363384
C     -1.0234232220    0.9112228401    2.1836251114
C      0.9769893191    0.6440157741    0.7811524917
O     -2.6943862534    2.5246350596   -0.6032637909
N     -3.0037579198    1.3523042416   -1.0953022561
Br    -4.6581525780    0.9227193395   -1.9069061237
Cl    -1.8778902751    0.0343272163   -1.1809931831
N     -3.5143992775    3.5307378440   -0.7330930441
F     -4.8240542190    3.4765301266   -0.4056116013
H      1.2894180803    4.5649369954    1.4173916429
H      0.5134613749    5.6544239175    2.5801132673
H      0.4381867927    3.8593496513    2.8057841742
H     -2.9319170420    4.7840342482    1.5081634035
H     -2.0824348986    3.9437274818    2.8572651442
H     -1.9930677952    5.7310354915    2.6808149128
H      1.4812935389    4.9424526245   -0.8359439615
H      2.1467201530    3.2778999303   -0.6148849680
H      2.1930087303    4.1091801743   -2.2101466637
H     -0.7715324241    2.0916678385   -2.8462033101
H      0.8041213338    2.5704116659   -3.4833766523
H      0.7317488338    1.4034607317   -2.0988936521
H      1.7754157502    1.2201531043    0.2804646016
H      1.4746559348    0.0414381740    1.5696599714
H      0.5463509759   -0.0547470337    0.0419303645
H     -1.6453358842    1.6918710886    2.6600965884
H     -1.7021295942    0.2656795745    1.5940057533
H     -0.5637216621    0.3182448566    3.0012412956
