35
XYZ file generated by Avogadro.
Ti    -0.6554206519    3.1649352448    0.2914040101
N     -0.4347110399    4.9093623710    1.3640431143
C     -1.6752138814    5.2252288728    2.0617438718
C      0.7083434056    4.7465358142    2.2578719192
N      0.1794172578    3.5613394799   -1.5469692591
C      1.5096308204    4.1228320636   -1.3322918933
C      0.1345155430    2.4007117523   -2.4220220793
N      0.1946442612    1.6372180685    1.3916915941
C     -0.8480715597    0.9873231873    2.1781761740
C      0.9695114831    0.7085214791    0.5782746333
O     -2.5874676086    2.8628766853   -0.0758350325
N     -4.7517664782    2.5031505840    0.7206332291
Cl    -6.4674166337    2.2848037415    0.5027707443
N     -4.3087805295    2.6936073341   -1.5969715791
C     -3.8688077658    2.6621085735   -0.3106256851
F     -4.7518313442    1.5725680506   -2.2080456399
H      1.6025351338    4.4762765227    1.6589802528
H      0.9290698598    5.7003368641    2.7783368844
H      0.5445357001    3.9361332526    3.0006237771
H     -2.5106877330    5.2473096184    1.3309837977
H     -1.9124487779    4.4796440413    2.8506494691
H     -1.6046487299    6.2360687011    2.5155445316
H      1.4042599748    5.1190845764   -0.8569902350
H      2.0808237975    3.4802930830   -0.6367593252
H      2.0675612897    4.2638584078   -2.2806672401
H     -0.9041640348    2.0060654368   -2.4386467343
H      0.4122194582    2.6890351615   -3.4602685805
H      0.8191744308    1.5933424132   -2.0939630178
H      1.7820772770    1.2628098492    0.0680377672
H      1.4777709604   -0.0469438565    1.2160264086
H      0.3279208114    0.1978246419   -0.1709739598
H     -1.2806618672    1.7390101558    2.8699577006
H     -1.6506901849    0.5916843263    1.5198684010
H     -0.4360615174    0.1697098121    2.8095973318
Br    -4.2091577057    2.4861696895    2.5344139525
