127

Ti         0.48402       -0.52559       -0.64242
N          0.68209       -1.09810        1.43189
C          1.68470       -0.53318        2.35862
C         -0.54261       -1.54280        2.13895
H          2.63897       -0.33576        1.83280
H          1.87748       -1.21560        3.20329
H          1.32124        0.32941        2.93089
H         -1.16804       -2.17286        1.48302
H         -1.18371       -0.71733        2.49202
H         -0.28053       -2.16110        3.02291
N          0.32882        0.03270       -2.71557
C         -0.92713        0.42978       -3.38869
C          1.48462        0.77768       -3.26526
H         -0.96137        1.48860       -3.71048
H         -1.82372        0.09712       -2.84467
H         -0.94751        0.01526       -4.39042
H          2.43034        0.21347       -3.16095
H          1.37918        0.94964       -4.35596
H          1.60167        1.76098       -2.77423
C          4.59902       -5.94768       -3.91228
C          3.50590       -5.73973       -2.86019
C          3.37667       -7.04933       -2.02565
C          2.22287       -5.32968       -3.57709
C          1.54789       -6.36215       -4.26901
C          0.41783       -6.12736       -5.01171
C         -0.03829       -4.84789       -5.16737
C          0.60283       -3.75196       -4.55105
C          0.11758       -2.36362       -4.93228
C         -1.25586       -2.30007       -5.66270
C          1.16886       -1.65363       -5.79177
C          1.71868       -3.97007       -3.64228
N          2.33992       -2.84262       -2.91971
C          1.91060       -2.27308       -1.79512
O          2.27326       -1.02921       -1.24645
N          0.74719       -2.60166       -1.04427
C         -0.47971       -3.13208       -1.58245
C          1.20098       -3.50692        0.11499
C          1.22509       -4.99251       -0.22206
C          2.59461       -3.26393        0.81608
C          3.84618       -3.13099        0.14810
C          5.04327       -2.96356        0.85154
C          5.04644       -2.95702        2.24045
C          3.85294       -3.14629        2.92917
C          2.64984       -3.31484        2.22774
H          4.32166       -6.76555       -4.61373
H          5.55809       -6.21192       -3.42142
H          4.74301       -5.01490       -4.49782
H          3.83923       -4.91569       -2.20880
H          4.31593       -7.23213       -1.46680
H          3.21333       -7.93874       -2.66723
H          2.54697       -7.05358       -1.29817
H          1.88650       -7.38447       -4.24750
H         -0.08682       -6.94130       -5.51854
H         -0.88947       -4.74577       -5.82044
H          0.01298       -1.84231       -4.00926
H         -1.22176       -2.79656       -6.65293
H         -1.57726       -1.26634       -5.89110
H         -2.04647       -2.75734       -5.02778
H          2.14500       -1.60023       -5.26861
H          1.30307       -2.19481       -6.75216
H          0.84274       -0.61728       -6.02212
H         -1.19022       -3.23194       -0.74677
H         -0.91007       -2.42079       -2.28946
H         -0.36455       -4.11301       -2.07553
H          0.43116       -3.50678        0.89976
H          0.23883       -5.40992       -0.49980
H          1.56530       -5.59395        0.65255
H          1.92833       -5.09062       -1.02891
H          3.95103       -3.15013       -0.91542
H          5.97596       -2.84522        0.31274
H          5.97670       -2.82523        2.78039
H          3.85984       -3.16343        4.01171
H          1.74901       -3.47683        2.80325
C         -4.83079       -2.87159        0.60229
C         -3.92963       -2.24539       -0.47424
C         -3.61701       -3.33049       -1.54293
C         -4.58231       -1.00403       -1.11100
C         -5.77205       -1.35635       -1.80182
C         -6.56713       -0.44360       -2.43716
C         -6.24962        0.88330       -2.38240
C         -5.09964        1.34248       -1.71637
C         -4.95855        2.86185       -1.71310
C         -3.73979        3.35604       -2.48331
C         -5.03002        3.39347       -0.27870
C         -4.17642        0.42176       -1.08262
N         -2.95308        1.04859       -0.53950
C         -1.77492        0.56822       -0.23170
O         -1.42770       -0.71980       -0.45263
N         -0.50589        1.30769       -0.14778
C         -0.38280        2.52206       -0.98856
C         -0.13677        1.82190        1.20797
C         -1.06512        2.95156        1.75042
C          1.37071        2.20547        1.32976
C          1.87360        2.84317        2.48909
C          3.23580        3.14482        2.61326
C          4.12811        2.81207        1.59467
C          3.66406        2.16923        0.45227
C          2.30945        1.86483        0.32477
H         -5.05449       -2.12428        1.39094
H         -4.30939       -3.73350        1.07437
H         -5.78565       -3.24923        0.18224
H         -3.04143       -1.99880        0.08275
H         -3.00949       -2.90972       -2.36435
H         -4.51806       -3.75711       -2.02232
H         -3.10445       -4.20299       -1.08439
H         -6.12135       -2.37618       -1.86801
H         -7.45718       -0.77295       -2.96056
H         -6.93085        1.56485       -2.87642
H         -5.82639        3.32272       -2.23818
H         -3.78094        2.99481       -3.53274
H         -3.72626        4.46673       -2.49215
H         -2.81299        3.00059       -2.03240
H         -4.18396        3.04122        0.33991
H         -5.03313        4.50245       -0.28150
H         -5.97776        3.04748        0.19226
H         -0.63236        2.36763       -1.99996
H          0.60794        3.00313       -1.00758
H         -1.10936        3.30381       -0.70833
H         -0.34654        1.05631        1.93270
H         -0.90407        3.10605        2.83649
H         -2.13021        2.66384        1.63785
H         -0.88283        3.93656        1.27593
H          1.22670        3.10438        3.31171
H          3.60313        3.63214        3.50662
H          5.18128        3.04142        1.69365
H          4.35447        1.89467       -0.33579
H          2.00724        1.34359       -0.56220
