127

Ti        -1.18039        3.25745        0.58391
N         -0.68940        5.06030        1.21240
C         -1.90257        5.48683        1.93491
C         -0.54151        6.00491        0.08718
H         -1.79896        6.54206        2.27016
H         -2.80532        5.40740        1.29165
H         -2.05929        4.91480        2.85684
H         -0.27692        7.01781        0.45979
H         -1.47778        6.07524       -0.50987
H          0.23190        5.66343       -0.61826
N         -0.74200        0.42220        0.43360
C         -2.12980        0.11277        0.05557
C         -0.55320       -0.24285       -0.75752
H         -2.46325        0.76293       -0.77970
H         -2.81375        0.31959        0.89628
H         -2.24251       -0.94952       -0.25229
H         -0.34560        0.44444       -1.68563
H          0.11559       -1.08706       -0.91857
H          0.54573        3.13823       -0.45453
C         -2.27249       -1.44351        2.96111
C         -1.50363       -0.12682        3.35668
C          0.05155       -0.43417        2.73460
C          0.39895       -1.76802        2.22487
C          1.46496       -2.10603        1.61101
C          1.87924       -1.18215        1.33802
C          1.80938        0.16219        2.04428
C          1.21351        0.42401        2.63973
N         -2.54861        1.10031        3.30521
C         -2.35766        2.47537        2.95902
N         -0.35280        2.65220        2.99880
C          0.11963        3.92555        3.79255
C          0.98219        5.22408        3.41719
C          0.75369        6.33580        4.30816
C          0.07809        6.35670        5.46020
C         -0.41687        5.21949        5.92159
C         -0.40026        4.02876        5.18201
C         -0.93376        2.93760        6.08520
C         -2.45269        3.01340        6.24644
C         -0.17579        1.63281        5.92744
C          2.05861        5.95053        2.36659
C          3.33994        6.23161        3.25835
C          2.81826        5.87190        0.98078
O         -2.98500        2.94090        1.30120
C         -3.66489        0.87510        4.23207
H         -1.84796       -2.31240        3.51417
H         -2.19368       -1.66137        1.88010
H         -3.33559       -1.54191        3.16109
H         -1.35908       -0.32452        4.43370
H         -0.24506       -2.62120        2.24814
H          1.78126       -3.14022        1.27184
H          3.79338       -1.69472        0.59748
H          2.85138        1.27701        1.35338
H          1.33111        1.39070        3.00239
H          1.16021        7.32873        4.12302
H          0.01364        7.26964        6.04324
H         -0.84816        5.29062        6.91445
H         -0.59636        3.14759        7.13197
H         -2.96755        3.00245        5.28963
H         -2.74237        3.99384        6.68179
H         -2.81445        2.23198        6.94465
H         -0.20838        1.27426        4.91881
H         -0.53157        0.87272        6.65321
H          0.90648        1.81785        6.12018
H          1.53242        6.89989        2.10568
H          3.90767        5.28671        3.39138
H          3.17201        6.63106        4.27454
H          4.03039        6.98765        2.81646
H          3.60385        5.08134        0.95487
H          3.37094        6.81555        0.76258
H          2.17657        5.80671        0.09503
H         -4.24206       -0.03736        4.06426
H         -4.39416        1.69946        4.23589
H         -3.22710        0.73249        5.24538
C          1.15355        0.03129        0.34108
C          3.53678       -0.11076        0.13775
C          3.76679       -0.37302        1.20677
C          3.39883       -2.38148        2.11072
C          3.10505       -2.14233        3.05162
C          3.47285       -1.30204        3.99113
C          3.49174        0.02338        3.67345
C          3.67394        0.29989        2.84857
N          2.60453       -0.27006       -0.69794
C          1.65529        2.52653        0.04284
N         -1.07630        3.26310       -1.10330
C          0.17637       -2.71909       -4.87756
C          1.51765       -4.42705       -4.11729
C          0.88215       -5.19261       -4.96762
C         -0.29109       -4.41120       -5.44601
C         -0.37792       -3.05915       -5.10689
C          0.13568       -2.72268       -4.89479
C         -0.08246       -1.31228       -4.21384
C         -1.02309       -0.88611       -3.11296
C          1.42928       -0.64011       -2.84672
C          2.64683       -5.42191       -3.25459
C          3.61228       -6.05357       -4.24416
C          3.42486       -4.59000       -2.24864
O          1.59940        3.30560        0.84490
C          2.86126       -0.42113       -1.03715
H          0.66344        0.71414        0.86652
H          0.68089       -0.95629        0.41510
H          0.94705        0.64419       -1.07264
H          3.65529        1.22501        0.10494
H          2.97721       -2.62509        0.90260
H          2.84454       -3.09901        3.31574
H          3.74132       -1.63566        4.93090
H          3.65264        0.72795        4.40423
H          3.50305        1.78587        2.45604
H          1.01425       -5.93082       -5.43042
H         -1.00740       -4.85435       -5.98962
H         -1.14225       -2.47923       -5.52249
H          0.35471       -0.39973       -4.66391
H         -1.05321       -1.51933       -2.25028
H         -1.80320       -1.16343       -3.78743
H         -1.16377        0.13106       -2.81877
H          1.40067       -1.27370       -1.98246
H          1.29936        0.37986       -2.54486
H          2.38072       -0.74257       -3.32735
H          2.11011       -6.19306       -2.73965
H          4.14936       -5.28378       -4.75858
H          3.06470       -6.64040       -4.95223
H          4.30297       -6.68074       -3.71963
H          3.96197       -3.81999       -2.76269
H          4.11559       -5.21694       -1.72373
H          2.74533       -4.14596       -1.55108
H          4.98563       -0.42624       -0.50637
H          4.66345       -0.70723       -2.18150
H          4.66187       -2.04245       -1.05785
